44
15
0 17 18 20 22 24 25 26 27 31 32 33 34 35 41 42
1 18 20 21 22 26 28 29 30 31 32 35 37 40 42
2 16 20 21 24 26 28 30 31 32 33 34 35 37 42 43
3 17 18 22 24 25 28 30 33 35 37 38 40 41 42 43
4 17 18 19 20 21 22 24 25 26 28 31 33 34 35 37 40
5 19 20 21 22 24 26 28 31 33 35 38 39 41 42 43
6 16 19 21 22 26 28 31 33 34 37 38 40 41 42 43
7 20 24 26 33 35 36 38 41
8 19 21 22 23 24 25 28 29 31 32 33 34 37 40 43
9 18 19 26 34 39 42
10 17 19 24 30 34 42
11 18 24 32 35 36 40
12 21 30 32 38 40 43
13 15 40
14 16 31 43
